; x(n) = 1/2 * x(n-1) + 1/2 * x(n-2)
; Solution: x(n) = 1/3 * (1 + 2 * pow(-1/2, n)) * x(0) + 2/3 * (1 - pow(-1/2, n)) * x(1)

(set-logic ALL)
(set-option :produce-models true)
(declare-fun x0 () Int)
(declare-fun x1 () Int)
(declare-fun n () Int)

(declare-fun iexp (Int Int) Int)
(assert (forall ((b Int)) (= (iexp b 0) 1)))
(assert (forall ((b Int) (e Int)) (=> (> e 0) (= (iexp b e) (* b (iexp b (- e 1)))))))
(assert (forall ((b Int) (e Int)) (=> (< e 0) (= (iexp b e) (* b (iexp b (+ e 1)))))))

(assert (> n 1))
(assert (distinct
  (+
    (* (/ 1 3) (+ 1 (* 2 (/ (iexp (- 1) n) (iexp 2 n)))) x0)
    (* (/ 2 3) (- 1 (/ (iexp (- 1) n) (iexp 2 n))) x1)
  )
  (+
    (* (/ 1 2)
      (+
        (* (/ 1 3) (+ 1 (* 2 (/ (iexp (- 1) (- n 1)) (iexp 2 (- n 1))))) x0)
        (* (/ 2 3) (- 1 (/ (iexp (- 1) (- n 1)) (iexp 2 (- n 1)))) x1)
      )
    )
    (* (/ 1 2)
      (+
        (* (/ 1 3) (+ 1 (* 2 (/ (iexp (- 1) (- n 2)) (iexp 2 (- n 2))))) x0)
        (* (/ 2 3) (- 1 (/ (iexp (- 1) (- n 2)) (iexp 2 (- n 2)))) x1)
      )
    )
  )
))

(check-sat)

